8589.72
8671.52
8671.52
8496.97
8496.97
8463.65
8463.65
8496.97
8496.97
8496.97
8396.89
8396.89
8512.43
8512.43
8614.46
8557.1
8557.1
8474.89
8474.89
8474.89
8474.89
8564.71
8396.98
8396.98
8545.68
8474.13
8262.45
8262.45
8505.98
8545.82
8545.82
8521.74
8489.64
8545.82
8487.86
8413.41
8413.41
8462.14
8474.09
8474.09
8391.53
8391.53
8337.24
8337.24
8337.24
8337.24
8026.63
8337.24
8337.24
8209.64
8209.64
8277.7
8278.29
8278.29
8351.37
8241.13
8246.34
8241.11
8241.11
8241.11
8241.11
8302.74
8302.74
8060.82
8043.37
8060.82
8060.82
8058.82
8137.88
8137.88
8137.88
8121.59
8069.87
8069.87
8069.87
8069.87
8069.87
8069.87
8069.87
8069.87
8069.87
8069.87
8069.87
8069.87
8069.87
8069.82
7975.13
7973.59
7946.08
8030.55
7972.85
7912.11
7912.11
7912.11
7959.35
7959.35
7965.43
7965.43
7873.99
7873.99
7816.54
7816.54
7816.54
7750.28
7750.28
7832.18
7832.18
7905.2
7874.06
7874.06
7836.7
7715.07
7715.07
7715.07
7721.69
7794.57
7794.57
7784.12
7784.12
7770.35
7770.35
7807.57
7726.81
7726.81
7398.52
7398.52
7730.71
7730.71
7712.03
7712.03
7712.03
7712.03
7712.03
7712.03
7644.49
7644.49
7644.49
7631.14
7572.29
7572.29
7541.49
7524.2
7524.2
7524.2
7524.2
7524.2
7584.42
7584.42
7584.42
7584.42
7515.03
7584.42
7584.42
7584.42
7574.25
7574.25
7574.25
7584.33
7584.33
7551.68
7529.08
7528.39
7529.08
7529.08
7534.46
7534.46
7540.15
7540.15
7578.16
7576.45
7584.42
7523.85
7518.44
7509.84
7518.44
7443.83
7429.46
7435.18
7435.18
7532.65
7483.09
7483.09
7504.53
7504.53
7494.5
7494.5
7494.5
7494.5
7482.97
7488.76
7494.5
7520.56
7469.84
7435
7435
7348.96
7348.96
7348.96
7315.81
7348.96
7379.37
7379.37
7379.37
7379.37
7431.07
7379.56
7379.56
7379.56
7409.96
7409.96
7341.58
7341.58
7363.8
7312.15
7396.54
7396.54
7396.54
7396.54
7441.92
7401.95
7401.95
7395.65
7384.11
7281.06
7281.06
7281.06
7254.49
7219.6
7281.06
7239.3
7239.3
7239.3
7239.3
7239.3
7229.64
7229.64
7170.51
7170.51
7170.51
7170.51
7170.51
7170.51
7170.51
7170.51
7170.51
7269.69
7263.95
7269.69
7269.69
7269.69
7298.54
7217.42
7292.45
7270.45
7128.25
7128.25
7128.25
7128.25
7128.25
7128.25
7128.25
7110.94
7110.94
7110.94
7110.94
7198.27
7117.73
7117.73
7099.98
7099.98
7117.73
7117.73
7117.73
7155.25
7155.25
7155.25
7155.25
7109.64
7004.68
7004.68
7004.68
7004.68
7004.68
7004.68
6976.82
6976.82
6976.82
6976.82
6976.82
6976.82
6976.82
6976.82
6976.82
6973.63
6976.82
6976.82
6933.47
6933.47
6911.41
6911.41
6911.41
6911.41
6911.41
6911.41
6911.41
6911.41
6911.41
6911.41
6911.41
6911.41
6856.36
6856.36
6856.36
6856.36
6856.36
6813.53
6856.36
6856.36
6856.36
6552.75
6856.36
6856.36
6856.36
6758.19
6727.12
6818.76
6818.76
6818.76
6691.88
6691.88
6691.88
6691.88
6691.88
6691.88
6691.88
6669.41
6691.88
6691.88
6691.88
6567.12
6506.99
6556.33
6567.12
6669.32
6669.32
6651.1
6651.1
6651.1
6651.1
6651.1
6638.68
6583.79
6583.79
6638.68
6667.8
6649.85
6659.5
6658.09
6606.74
6606.74
6606.74
6606.74
6606.74
6606.74
6606.74
6476.67
6551.65
6606.74
6606.74
6606.74
6612.26
6548.54
6548.54
6548.54
6510.05
6652.67
6652.67
6652.67
6652.67
6410.34
6410.34
6410.34
6410.34
6410.34
6410.34
6367.28
6410.34
6410.34
6410.34
6410.34
6410.34
6410.34
6410.34
6410.34
6410.34
6396.47
6396.47
6400.08
6217.52
6217.52
6217.52
6217.52
6217.52
6306.04
6217.87
6217.87
6217.87
6346.17
6346.17
6346.17
6367.21
6350.77
6350.77
6314.33
6314.33
6107.91
6107.91
6107.91
6107.91
6107.91
6107.91
6107.91
6112.57
6112.57
6112.57
6153.65
6153.65
6153.65
6153.65
6335.4
6324.14
6199.53
6199.53
6278.22
6324.14
6318.65
6324.14
6324.14
6324.14
6324.14
6272.8
6317.08
6317.08
6317.08
6317.08
6317.08
6313.73
6306.61
6253.13
6220.4
6220.4
6163.12
6253.27
6229.73
6229.73
6253.27
6253.27
6253.27
6155.48
6253.27
6253.27
6227.61
6261.79
6296.89
6308.74
6308.74
6308.74
6313.82
6233.37
6233.37
6227.75
6319.1
6240.69
6240.69
6240.69
6240.69
6240.69
6240.69
6240.69
6240.69
6168.88
6168.88
6133.27
6133.27
6133.27
6133.27
6133.27
6073.14
6073.14
6113.55
6113.55
6113.55
6113.55
6242.39
6258.48
6258.48
6258.48
6258.48
6258.48
6258.48
6258.48
6236.5
6253.94
6198.35
6253.94
6253.94
6191.99
6191.99
6191.99
6191.99
6191.99
6191.99
6185.25
6185.25
6191.99
6191.99
6191.99
6191.99
6191.99
6191.99
6191.99
6247.7
6247.7
6244.72
6125.95
6247.7
6247.7
6247.7
6273.37
6234.47
6234.47
6234.47
6234.47
6234.47
6229.52
6229.52
6229.52
6229.52
6229.52
6234.47
6172.52
6234.47
6234.47
6190.87
6163.18
6234.47
6234.47
6234.47
6234.47
6234.47
6246.56
6246.56
6223.58
6223.58
6137.81
6284.4
6284.4
6277.87
6168.99
6210.88
6210.88
6243.96
6243.96
6127.94
6127.94
6127.94
6127.94
6127.94
6101.11
6101.11
6127.94
6127.94
6164.51
6164.51
6180.92
6180.92
6180.92
6180.92
6180.92
6180.92
6159.75
6159.75
6145.27
6154.88
6154.88
6159.75
6159.75
6117.14
6159.75
6069.77
6159.75
6159.75
6248.2
6236.63
6236.63
6236.63
6236.63
6220.73
6220.73
6220.73
6175.67
6220.73
6248.2
6248.2
6248.2
6221.82
6221.82
6221.82
6221.82
6221.82
6191.83
6100.81
6100.81
6100.81
6100.81
6100.81
6100.81
6153.55
6153.55
6177.44
6177.44
6177.44
6177.44
6177.44
6177.44
6177.44
6177.44
6177.44
6177.44
6258.44
6258.44
6266.97
6171.12
6292.87
6292.87
6220.95
6176.82
6176.82
6183.93
6183.93
6178.89
6178.89
6110.22
6110.22
6110.22
6310.88
6301.35
6236.52
6236.52
6236.52
6236.52
6236.52
6236.52
6236.52
6236.52
6189.14
6189.14
6189.14
6189.14
6189.14
6257.98
6257.98
6306.97
6306.97
6184.81
6306.97
6281.24
6306.97
6306.97
6177.15
6177.15
6177.15
6283.01
6223.04
6256.88
6256.88
6256.88
6272.43
6272.43
6199.47
6199.47
6222.42
6222.42
6190.93
6190.93
6190.93
6180.57
6180.57
6180.57
6121.32
6169.37
6180.57
6180.57
6180.57
6180.57
6180.57
6180.57
6180.57
6180.57
6180.57
6039.19
6180.57
6180.57
6180.57
6180.57
6180.57
6173.94
6173.94
6173.94
6173.94
6173.94
6173.94
6184.82
6184.82
6180.35
6180.35
6207.16
6250.15
6112.95
6112.95
6112.95
5866.26
6112.95
6112.95
6129.86
6228.94
6228.94
6160.82
6072.58
6072.58
6178.68
6178.68
6178.68
6181.99
6236.67
6267.47
6182.41
6267.47
6319.14
6274.94
6274.94
6228.8
6228.8
6228.8
6228.8
6228.8
6266.46
6266.46
6266.46
6366.56
6343.4
6163.45
6163.45
6163.45
6163.45
6163.45
6087.28
6021.02
6021.02
6021.02
6021.02
6021.02
6021.02
6021.02
6019.37
5965.02
6021.02
5971.62
6021.02
6021.02
6021.02
6021.02
6021.02
6021.02
6021.02
5929.54
5929.54
6021.02
6021.02
6021.02
6021.02
6021.02
6021.02
5942.49
5942.49
5942.49
5942.49
5942.49
5942.49
5942.49
5942.49
5942.49
5942.49
5942.49
5942.49
5942.49
5942.49
5942.49
5942.49
5942.49
5942.49
6063.82
5886.17
6056.6
6036.98
5892.36
5892.36
6056.6
6056.6
6056.6
6008.64
6018.84
6014.41
6014.41
5995.14
5962.06
5861.7
5861.7
5861.7
5794.68
5794.68
5794.68
5861.7
5861.7
5861.7
5861.7
5861.7
5861.7
5861.7
5861.7
5861.7
5861.7
5861.7
5861.7
5861.7
5861.7
5861.7
5861.7
5861.7
5861.7
5861.7
5844.16
5783.77
5826.98
5804.35
5826.98
5826.98
5826.18
5826.18
5826.18
5826.18
5815.66
5834.65
5797.61
5834.65
5834.65
5834.65
5834.65
5834.65
5834.65
5834.65
5834.65
5834.65
5834.65
5862.61
5862.61
5862.61
5862.61
5862.61
5862.61
5892.51
5827.51
5827.51
5827.51
5827.51
5827.51
5827.51
5716.62
5716.62
5698.97
5682.93
5682.93
5682.93
5682.93
5682.93
5650.06
5682.93
5727.97
5667.19
5727.97
5727.97
5727.97
5820.33
5820.33
5805.64
5805.64
5820.33
5820.33
5820.33
5820.33
5820.33
5820.33
5820.33
5820.33
5774.69
5819.85
5843.78
5843.78
5843.78
5843.78
5816.56
5843.78
5843.78
5843.78
5843.78
5843.78
5821.87
5821.87
5707.88
5707.88
5707.88
5931.06
5899.38
5902.28
5908.93
5908.93
5908.93
5908.93
5908.93
5908.93
5908.93
5893.94
5893.94
5893.94
5893.94
5875.1
5875.1
5875.1
5759.72
5759.72
5759.72
5884.61
5884.61
5904.72
5924.25
5874.04
5874.04
5874.04
5874.04
5866.67
5866.67
5842.2
5864.63
5781.17
5781.17
5781.17
5781.17
5781.17
5781.17
5787.02
5787.02
5767.12
5767.12
5602.84
5602.84
5767.12
5767.12
5767.12
5767.12
5767.12
5767.12
5765
5751.03
5751.03
5751.03
5779.36
5779.36
5779.36
5864.63
5864.63
5864.63
5839.43
5839.43
5772.89
5772.89
5683.52
5683.52
5879.8
5835.91
5835.91
5835.91
5835.91
5835.91
5781.48
5781.48
5802.3
5802.3
5802.3
5549.39
5549.39
5549.39
5802.3
5716.82
5687.3
5687.3
5687.3
5687.3
5687.3
5687.3
5687.3
5687.3
5687.3
5682.35
5682.35
5651.46
5682.35
5682.35
5682.35
5682.35
5567.28
5652.4
5686.86
5683.39
5687.3
5687.3
5687.3
5687.3
5687.3
5631
5631
5559.66
5559.66
5559.66
5559.66
5631
5631
5631
5631
5631
5631
5631
5681.72
5681.72
5665.21
5665.21
5587.36
5645.08
5625.01
5625.01
5645.08
5518.86
5518.86
5518.86
5584.53
5592.78
5595.76
5595.76
5595.76
5595.76
5595.76
5595.76
5595.76
5555.62
5584.81
5593.19
5593.19
5591.25
5582.73
5582.73
5560.69
5552.3
5552.3
5552.3
5552.3
5552.3
5552.3
5552.3
5552.26
5552.26
5529.19
5529.19
5529.19
5515.34
5515.34
5501.09
5515.34
5529.19
5503.94
5529.19
5529.19
5457.92
5457.92
5457.92
5457.92
5446.53
5446.53
5446.53
5446.53
5446.53
5409.79
5409.79
5409.79
5446.53
5446.53
5446.53
5517.25
5477.82
5477.82
5477.82
5548
5548
5548
5548
5501.08
5548
5525.45
5525.45
5525.45
5443.36
5443.36
5443.36
5443.36
5443.36
5443.36
5443.36
5482.1
5563.75
5563.75
5572.44
5583.1
5559.81
5583.1
5600.61
5417.02
5417.02
5598.67
5540.3
5588.62
5578.7
5588.62
5588.62
5588.62
5580.64
5592.06
5613.55
5636
5636
5530.17
5476.76
5636
5617.16
5617.16
5617.16
5617.16
5579.88
5600.24
5581.09
5581.09
5527.69
5563.7
5563.7
5563.7
5560.96
5560.96
5560.96
5522.83
5522.83
5522.83
5497.28
5522.83
5520.41
5520.41
5522.83
5584.18
5584.18
5584.18
5527.22
5527.22
5527.22
5527.22
5527.22
5527.22
5527.22
5519.47
5519.47
5519.47
5539.1
5493.08
5493.08
5493.08
5493.08
5493.08
5493.08
5493.08
5493.08
5478.91
5493.08
5493.08
5460.77
5460.77
5460.77
5296.08
5296.08
5460.77
5460.77
5517.73
5535.85
5535.85
5535.85
5504.28
5504.28
5504.28
5504.28
5504.28
5535.85
5535.85
5515.83
5449.46
5449.46
5449.46
5449.46
5591.71
5542.8
5542.8
5542.8
5591.71
5591.71
5550.14
5591.71
5555.55
5555.55
5555.55
5555.55
5555.55
5553.54
5555.55
5555.55
5555.55
5555.55
5555.55
5555.55
5516.7
5555.55
5555.55
5555.55
5619.8
5625.58
5633.99
5627.61
5527.21
5527.21
5342.67
5342.67
5342.67
5342.67
5342.67
5342.67
5527.21
5519.73
5519.73
5453.28
5453.28
5453.28
5453.28
5453.28
5449.54
5453.18
5453.18
5457.87
5491.67
5491.67
5475.33
5475.33
5475.33
5366.07
5366.07
5475.33
5461.35
5461.35
5511.06
5511.06
5511.06
5511.06
5511.06
5407.69
5407.69
5388.07
5388.07
5388.07
5388.07
5388.07
5388.07
5388.07
5388.07
5388.07
5388.07
5388.07
5388.07
5392.35
5392.35
5392.35
5392.35
5392.35
5392.35
5378.65
5392.35
5392.35
5392.35
5336.01
5336.01
5376.97
5376.97
5376.97
5376.97
5376.97
5376.97
5376.97
5376.97
5376.97
5376.97
5376.97
5376.97
5376.97
5376.97
5376.97
5376.97
5376.97
5376.97
5376.97
5376.97
5376.97
5376.97
5376.97
5376.97
5398.77
5398.77
5446.39
5446.39
5470.18
5470.18
5471.34
5471.34
5471.34
5471.34
5466.72
5449.34
5366.59
5377.81
5427.33
5427.33
5427.33
5427.33
5427.33
5427.33
5427.33
5407.13
5401.95
5421.23
5421.23
5400.78
5400.78
5400.78
5400.78
5400.78
5334.54
5334.54
5391.63
5322.65
5377.75
5377.75
5421.23
5421.23
5204.14
5374.06
5374.06
5374.06
5374.06
5422.23
5422.23
5422.23
5422.23
5422.23
5281.15
5281.15
5431.37
5431.37
5431.37
5413.38
5371.5
5411.31
5427.07
5431.37
5398.68
5398.68
5431.37
5431.37
5431.37
5420.58
5420.58
5454.48
5454.48
5454.48
5403.16
5380.12
5403.16
5474.43
5422.9
5422.9
5355.29
5355.29
5355.29
5409.61
5386.08
5386.08
5386.08
5386.08
5386.08
5334.92
5422.9
5422.9
5422.9
5422.9
5422.9
5422.9
5370.6
5370.6
5370.6
5328.87
5376.19
5376.19
5376.19
5376.19
5375.61
5351.71
5375.61
5375.61
5375.61
5375.61
5375.61
5375.61
5327.57
5412.1
5412.1
5412.1
5412.1
5334.53
5334.53
5320.93
5325.17
5325.17
5409.5
5372.82
5372.82
5372.82
5372.82
5303.31
5413.67
5333.09
5333.09
5333.09
5333.09
5333.09
5375.82
5342.9
5395.62
5395.62
5395.62
5360.36
5360.36
5350.48
5350.48
5350.48
5370.81
5328
5318.04
5318.04
5318.04
5318.04
5318.04
5318.04
5318.04
5318.04
5318.04
5318.04
5265.91
5318.04
5318.04
5318.04
5318.04
5318.04
5318.04
5318.04
5318.04
5300.27
5300.27
5300.27
5300.27
5300.27
5300.27
5300.27
5256.84
5256.84
5300.27
5300.27
5300.27
5300.27
5300.27
5300.27
5300.27
5285.64
5285.64
5164.53
5164.53
5240.39
5240.39
5240.39
5240.39
5240.39
5240.39
5240.39
5240.39
5240.39
5240.39
5318.04
5318.04
5302.66
5326.24
5326.24
5326.24
5274.32
5336.7
5336.7
5293.73
5333.17
5362.19
5362.19
5362.19
5362.19
5289.22
5289.22
5299.45
5299.45
5299.45
5298.95
5347.03
5364.06
5364.06
5370.29
5328.35
5370.29
5370.29
5370.29
5370.29
5370.29
5370.29
5370.29
5370.29
5359.4
5359.15
5359.15
5359.4
5359.4
5359.4
5359.4
5359.4
5359.4
5372.82
5326.21
5372.82
5372.82
5281.3
5281.3
5281.3
5281.3
5281.3
5281.3
5281.3
5281.3
5343.83
5343.83
5377.14
5347.11
5377.14
5340.45
5367.53
5377.14
5370.35
5377.14
5377.14
5377.14
5266.08
5266.08
5266.08
5314.67
5314.67
5314.67
5301.17
5314.67
5341.55
5341.55
5341.55
5341.55
5342.93
5330.18
5330.18
5330.18
5330.18
5330.18
5330.18
5330.18
5330.18
5330.18
5330.18
5330.18
5330.18
5322.38
5322.38
5322.38
5273.37
5273.37
5242.64
5273.37
5273.37
5267.13
5272.38
5272.38
5272.38
5272.38
5213.05
5213.05
5213.05
5213.05
5213.05
5213.05
5213.05
5213.05
5238.72
5238.72
5238.72
5238.72
5217.07
5217.07
5217.07
5238.72
5238.72
5238.72
5238.72
5238.72
5238.72
5238.72
5227.85
5088.04
5232.36
5232.36
5158.66
5225.2
5209.1
5193.29
5201.83
5238.72
5179.51
5179.51
5179.51
5179.51
5179.51
5179.51
5234.98
5184.51
5141.68
5141.68
5173.74
5184.51
5183.8
5142.8
5142.8
5142.8
5142.8
5142.8
5142.8
5142.8
5172.19
5172.19
5177.09
5184.51
5184.51
5179.86
5179.86
5179.86
5179.86
5179.86
5179.86
5179.86
5179.86
5179.86
5165.8
5179.86
5179.86
5179.86
5171.64
5171.64
5179.86
5179.86
5179.86
5164.32
5179.86
5179.86
5177.41
5135.64
4981.84
5177.41
5176.74
5176.74
5177.41
5177.41
5177.41
5201.4
5201.4
5201.4
5190.61
5152.83
5152.83
5152.83
5152.83
5152.83
5152.83
5152.83
5152.83
5152.83
5151.35
5152.83
5143.07
5143.07
5143.07
5152.83
5152.83
5189.21
5187.87
5187.87
5187.87
5187.87
5187.87
5187.87
5179.9
5170.03
5115.51
5115.51
5170.03
5159.17
5159.17
5159.17
5159.17
5187.87
5187.87
5187.87
5186.74
5076.98
5076.98
5076.98
5076.98
5075.66
5073.74
5138.68
5083.64
5083.64
5138.68
5121.58
5138.68
5154.13
5154.13
4900.46
5093.97
5093.97
5093.97
5093.97
5093.97
5093.97
5056.34
5093.97
5093.97
5093.97
5112.37
5112.37
5112.37
5112.37
5112.37
5125.98
5125.98
5200.6
5200.6
5183.04
5170.18
5200.6
5199.16
5122.52
5122.52
5122.52
5122.52
5122.52
5122.52
5219.66
5122.69
5122.69
5122.69
5122.69
5122.69
5012.14
5012.14
4915.66
5012.14
5012.14
5012.14
5012.14
5012.14
5012.14
5012.14
5012.14
5012.14
5012.14
5095.77
4996.92
4996.92
4996.92
4996.92
5180.24
5180.24
5180.24
5115.67
5228.66
5228.66
5228.66
5228.66
5228.66
5228.66
5228.66
5228.66
5228.66
5228.66
5228.66
5228.66
5228.66
5228.66
5228.66
5228.66
5228.66
5228.66
5214.18
5117.25
5171.6
5171.6
5171.6
5171.6
4956.18
4956.18
4956.18
4956.18
4956.18
4956.18
4956.18
4956.18
4956.18
4956.18
4890.94
4956.18
4956.18
4956.18
4956.18
4956.18
4956.18
4956.18
4956.18
4956.18
4956.18
4956.18
5030.83
5030.83
5030.83
4963.32
4963.1
4963.1
4963.1
4963.1
4963.1
4963.1
4963.1
4963.1
4963.1
4963.1
4963.1
4963.1
4963.1
4963.1
4963.1
4963.1
4963.1
4963.1
4963.1
4963.1
4963.1
4963.1
4963.1
4963.1
4944.66
4925.55
4925.55
4918.11
4944.66
4944.66
4896.87
4896.87
4896.87
4944.66
4915.53
4944.66
4922.01
4944.66
4905.12
4905.12
4905.12
4905.12
4905.12
4897.93
4932.88
4932.88
4932.88
4932.88
4932.88
4932.88
4932.88
4932.88
4932.88
4932.88
4932.88
4932.88
4904.31
4904.31
4873.36
4873.36
4873.36
4873.36
4904.31
4892.36
4892.36
4892.36
4892.36
4892.36
4911.71
4851.72
4851.72
4851.72
4932.32
4932.32
4908.74
4908.74
4916.47
4932.88
4932.88
4932.88
4913.5
4913.5
4912
4912
4911.83
4912
4912
4912
4833.5
4833.5
4833.5
4833.5
4833.5
4833.5
4833.5
4833.5
4833.5
4833.5
4833.5
4833.5
4833.5
4912
4912
4912
4912
4912
4911.08
4911.08
4911.08
4911.08
4857.41
4912
4912
4791.99
4791.99
4791.99
4945.77
4957.94
4896.81
4896.81
4896.81
4896.81
4896.81
4868.8
4868.8
4868.8
4868.8
4868.8
4868.8
4934.46
4934.46
4934.46
4954.33
4954.33
4954.33
4954.33
4977.05
4987.35
4987.35
4987.35
4987.35
4987.35
4987.35
4957.14
4957.14
4957.14
4985.21
4983.18
4985.21
4985.21
4767.89
4767.89
4767.89
4767.89
4880.55
4994.94
5011.72
4998.19
4998.19
4998.19
4978.57
4978.57
4978.57
4978.57
4978.57
4978.57
4978.57
4978.57
4978.57
4978.57
4978.57
4978.57
4978.57
4978.57
4978.57
4978.57
4978.57
4978.57
4978.57
4978.57
5008.43
5018.24
4985.31
4985.31
4929.97
5018.24
4954.89
4999.53
4980.09
4980.09
4980.09
4980.09
5018.24
5018.24
5018.24
5018.24
5018.24
4950.03
5018.24
5018.24
5018.24
5018.24
5018.24
5018.24
5011.94
5011.94
5011.94
5006.34
5006.34
5006.34
5006.34
4972.33
5018.24
4965.49
5018.24
5018.24
5018.24
5059.12
5034.98
5046.73
5046.73
5046.73
4991.5
4991.5
4991.5
4991.5
4991.5
4991.5
4985.99
4985.99
4985.99
4985.99
4985.99
4985.99
4985.99
4985.99
4985.99
4985.99
4985.99
4981.25
4977.94
4991.5
4949.63
4949.63
4949.63
4991.5
4991.5
4991.5
5002.47
4989.82
4980
4980
5002.47
5002.47
5002.47
5002.47
5002.47
4950.67
4950.67
4950.67
4950.67
4950.67
4950.67
4943.4
4944.52
4950.67
4950.67
4950.67
4950.67
4950.67
4950.67
4950.67
4950.67
4950.67
4950.67
4950.67
4930.43
4930.43
4930.43
4930.43
4930.43
4930.43
4916.54
4930.43
4893.46
4893.46
4893.46
4893.46
4893.46
4893.46
4893.46
4893.46
4893.46
4893.46
4893.46
4893.46
4883.79
4883.79
4883.79
4883.79
4883.79
4883.79
4883.79
4883.79
4883.79
4883.79
4883.79
4859.51
4859.51
4859.51
4859.51
4859.51
4859.51
4859.51
4859.51
4859.51
4859.51
4859.51
4859.51
4839.99
4839.99
4839.99
4839.99
4839.99
4839.99
4839.99
4835.05
4835.05
4835.05
4835.05
4835.05
4839.99
4880.65
4821.44
4821.44
4883.79
4879.74
4879.74
4879.74
4879.74
4879.74
4879.74
4879.74
4879.74
4879.74
4879.74
4879.74
4879.74
4879.74
4879.74
4879.74
4879.74
4879.74
4879.74
4879.74
4879.74
4879.74
4951.77
4951.77
4951.77
4951.77
4951.77
4902.08
4902.08
4925.21
4951.77
4951.77
4951.77
4951.77
4951.77
4951.77
4951.77
4951.77
4951.77
4951.77
4951.77
4951.77
5004.13
5004.13
5004.13
5015.43
5015.43
5015.43
5015.43
5015.43
5015.43
5018.75
5018.75
5018.75
4962.68
5018.75
5018.75
5018.75
5018.75
5018.75
5052.05
5021.13
5021.13
5021.13
5021.13
5021.13
5021.13
4990.99
4990.99
4938.14
4938.14
4938.14
4938.14
4938.14
5029.07
5014.79
4958.48
4958.48
4958.48
5026.1
5026.1
5026.1
4979.99
4979.99
4979.99
4979.99
4979.99
5011.63
5011.63
5011.63
5011.63
4980.75
4980.75
4980.75
4980.75
4980.75
4980.75
4980.75
5046.74
4993.73
5043.53
5043.53
5020.75
4992.51
4992.51
4992.51
5015.9
5015.9
4956.1
4956.1
4956.1
4956.1
4956.1
4956.1
4956.1
4956.1
4956.1
4931.84
4931.84
5021.79
5021.79
5021.79
5007.39
5007.39
5007.39
4970.59
4975.59
4975.59
4975.59
4975.59
4975.59
4975.59
4975.59
5007.39
4986.64
4986.64
4986.64
4919.18
4919.18
4919.18
4950.02
5017.12
5012.68
5031.25
5031.25
5031.25
4946.81
4946.81
4946.81
4946.81
4946.81
4946.81
4946.81
4946.81
4946.81
4946.81
4946.81
4946.81
4990.89
4998.74
4998.74
5031.25
4943.83
4943.83
4943.83
4943.83
4943.83
4943.83
4943.83
4909.33
4909.33
4943.83
4943.83
4943.83
4965.79
4965.79
5031.25
4999.58
5031.25
5031.25
5009.61
5009.61
5009.61
5031.25
5031.25
5031.25
5031.25
5031.25
5031.25
5098.45
5083.42
5083.42
5098.45
5112.47
5146.3
5146.3
5146.3
5107.51
5129.64
5146.3
5146.3
5120.9
5120.9
5190.38
5190.38
5190.38
5160.32
5190.38
5166.85
5166.85
5166.85
5166.85
5166.85
5166.85
5166.85
5166.85
5166.85
5166.85
5166.85
5166.85
5166.85
5166.85
5166.85
5166.85
5166.85
5166.85
5183.23
5231.89
5231.89
5254.8
5254.8
5237.24
5237.24
5237.24
5237.24
5237.24
5237.24
5235.15
5237.24
5237.24
5237.24
5237.24
5159.98
5159.98
5159.98
5159.98
5212.4
5212.4
5197.25
5197.25
5212.4
5237.24
5237.24
5237.24
5237.24
5237.24
5180.46
5180.46
5180.46
5237.24
5237.24
5179.92
5267.79
5126.55
5243.84
5243.84
5243.84
5224.49
5243.84
5243.84
5243.84
5243.84
5243.84
5243.84
5240.16
5238.93
5240.16
5240.16
5240.16
5206.01
5243.84
5187.98
5187.98
5103.7
5103.7
5103.7
5187.98
5187.98
5187.98
5187.98
5187.98
5078.42
5078.42
5187.98
5187.98
5187.98
5187.98
5187.98
5163.68
5124.13
5124.13
5124.13
5124.13
5124.13
5124.13
5124.13
5124.13
5181.33
5135.73
5135.73
5135.73
5135.73
5135.73
5134.06
5135.73
5135.73
5127.05
5107.19
5107.19
5108.82
5108.82
5127.05
5127.05
5099.13
5099.13
5099.13
5099.13
5047.87
5088.61
5088.61
5088.61
5088.61
5088.61
5088.61
5083.79
5083.79
5083.79
5083.79
5083.79
5083.79
5083.79
5083.79
5083.79
5066.53
5083.79
5026.33
5026.33
5026.33
5026.33
5026.33
4998.76
4998.76
4998.76
5082.48
5065.39
5082.48
5081.74
5099.56
5099.56
5099.56
5092.34
5099.56
5126.85
5126.85
5108.82
5108.82
5122.3
5118.9
5118.9
5094.67
5094.67
5111.25
5111.25
5111.25
5054.59
5111.25
5100.17
5100.17
5100.17
5100.17
5119.85
5006.01
5080.06
5080.06
5101.15
5119.85
5119.85
5119.85
5124.75
5032.21
5032.21
5145.31
5145.31
5145.31
5145.31
5145.31
5145.31
5145.31
5145.31
5091.22
5106.08
5106.08
5104.36
5100.68
5100.68
5100.68
5100.68
5100.68
5100.68
5099.9
5099.9
5145.31
5128.78
5145.31
5145.31
5145.31
5145.31
5101.32
5140.43
5105.95
5105.95
5105.95
5145.31
5145.31
5129.27
5115.38
5055.9
5055.9
5055.9
5055.9
5055.9
4971.22
4971.22
4971.22
4971.22
4945.92
4945.92
4945.92
4945.92
4945.92
4967.93
4967.93
4967.93
4939.62
4971.22
4971.22
4971.22
4971.22
4971.22
4971.22
4971.22
4971.22
4971.22
5035.47
5035.47
4976.92
4976.92
5035.47
5107.94
4981.38
5095.11
5095.11
5107.94
5107.94
5103.81
5107.94
5084.33
5084.33
5074.87
5031.54
5031.54
5074.87
5074.87
5074.87
5074.87
5105.55
5105.55
5105.55
5105.55
5105.55
5105.55
5105.55
5079.37
5081.57
5105.55
5105.55
5105.55
5105.55
5105.55
5105.55
5105.55
5008.85
5008.85
5008.85
5026.04
5045.52
4895.3
5045.52
5059.77
5059.77
5059.77
5031.88
5059.77
5059.77
5059.77
5077.56
5077.56
5054.33
5077.56
5077.56
5071.37
5071.37
5071.37
5076.59
5076.59
5076.59
5077.56
5077.56
5077.56
5077.56
5077.56
5077.56
5077.56
5077.56
5044.41
5044.41
5044.41
5044.41
5044.41
5044.41
5044.41
5044.41
5044.41
5044.41
5044.41
5044.41
5044.41
5044.41
5044.41
5044.41
5044.41
5044.41
4969.67
4969.67
4969.67
4969.67
4969.67
4969.67
4969.67
4969.67
4969.67
5005.43
4987.48
5005.43
5005.43
4992.05
4992.05
4992.05
4992.05
5022.92
5052.35
5052.35
5039.09
5039.09
5039.09
5052.35
5052.35
5052.35
5052.35
5052.35
5052.35
5052.35
5052.35
5052.35
5025.45
5025.45
5052.35
5052.35
5052.35
4975.33
4975.33
5052.35
5052.35
5052.35
5052.35
5052.35
5052.35
5052.35
5097.49
5097.49
5097.49
5097.49
5065.24
5065.24
5097.49
5097.49
5097.49
5145.93
5145.93
5227.97
5227.97
5227.97
5227.97
5178.07
5178.07
5178.07
5227.97
5227.97
5227.97
5227.97
5234.33
5237.69
5237.69
5237.69
5237.69
5237.69
5125.13
5125.13
5198.54
5198.54
5198.54
5198.54
5246.84
5246.84
5154.58
5154.58
5246.84
5220.61
5220.61
5220.61
5220.61
5201.72
5201.72
5201.72
5201.72
5201.72
5201.72
5195.85
5201.72
5201.72
5201.72
5201.72
5201.72
5304.35
5304.35
5304.35
5304.35
5304.35
5304.35
5304.35
5304.35
5304.35
5304.35
5304.35
5304.35
5304.35
5304.35
5279.5
5279.5
5279.5
5279.5
5297.66
5281.27
5326.23
5326.23
5326.23
5313.77
5313.77
5252.04
5252.04
5252.04
5252.04
5252.04
5252.04
5252.04
5224.5
5224.5
5224.5
5224.5
5244.97
5230.98
5230.98
5217.01
5230.98
5230.98
5230.98
5230.98
5230.98
5230.98
5287.95
5287.95
5287.95
5287.95
5287.95
5287.95
5287.95
5287.95
5287.95
5287.95
5287.95
5277.38
5277.38
5287.95
5287.95
5287.95
5325.39
5325.39
5325.39
5325.39
5330.8
5313.58
5250.22
5313.58
5249.68
5348.35
5343.77
5348.35
5348.35
5348.35
5348.35
5338.87
5338.87
5338.87
5338.87
5338.87
5348.35
5319.77
5348.35
5348.35
5359.23
5359.23
5359.23
5255.8
5319.88
5291.28
5291.28
5272.05
5272.05
5166.41
5166.41
5166.41
5166.41
5166.41
5205.43
5205.43
5293.97
5260.09
5275.33
5275.33
5293.97
5293.97
5293.97
5262.74
5262.74
5262.74
5262.74
5283.14
5283.14
5252.74
5283.14
5282.54
5283.14
5283.14
5218.83
5218.83
5218.83
5218.83
5218.83
5218.83
5218.83
5218.83
5218.83
5218.83
5218.83
5218.83
5283.14
5283.14
5283.14
5283.14
5283.14
5283.14
5283.14
5283.14
5283.14
5252.7
5252.7
5214.26
5214.26
5214.26
5214.26
5214.26
5214.26
5214.26
5214.26
5214.26
5214.26
5218.21
5218.21
5218.21
5218.21
5218.21
5266.28
5266.28
5266.28
5266.28
5266.28
5363.83
5363.83
5363.83
5363.83
5363.83
5363.83
5363.83
5363.83
5363.83
5363.83
5298.75
5358.48
5358.48
5363.83
5364.54
5367.04
5367.04
5417.28
5417.28
5391.33
5391.33
5391.33
5391.33
5391.33
5391.33
5391.33
5391.33
5391.33
5391.49
5391.49
5391.49
5378.6
5378.6
5378.6
5378.6
5378.6
5280.79
5361.43
5378.6
5378.6
5378.6
5195.42
5343.75
5343.75
5343.75
5302.52
5302.52
5302.52
5302.52
5302.52
5302.52
5302.52
5302.52
5302.52
5302.52
5279.6
5279.6
5279.6
5279.6
5279.6
5302.52
5302.52
5302.52
5252.04
5252.04
5248.45
5248.45
5248.45
5176.34
5176.34
5176.34
5176.34
5176.34
5176.34
5176.34
5176.34
5176.34
5176.34
5176.34
5176.34
5176.34
5176.34
5176.34
5176.34
5176.34
5176.34
5176.34
5176.34
5053.21
5053.21
5053.21
5053.21
5053.21
5053.21
5053.21
5053.21
5053.21
5053.21
5053.21
5053.21
5053.21
5053.21
5053.21
5053.21
5053.21
5047.26
5047.26
5047.26
5047.26
5047.26
5015.87
5047.26
5047.26
5047.26
5047.26
5047.26
5047.26
5047.26
5047.26
5047.26
5047.26
5047.26
5047.26
5039
5047.26
5047.26
5017.89
5017.89
5017.89
5017.89
5017.89
4997.71
4997.71
4997.71
4997.71
4997.71
4997.71
4997.71
4997.71
4997.71
4997.71
4997.71
4997.71
4997.71
4997.71
4997.71
4997.71
4997.71
4997.71
4997.71
4997.71
5038.19
4977.41
5047.26
5047.26
5047.26
5047.26
5047.26
5047.26
5047.26
5047.26
5047.26
5130.57
5130.57
5130.57
5065.75
5065.75
5133.33
5133.33
5023.04
5023.04
5023.04
5023.04
5023.04
5023.04
5023.04
5023.04
5023.04
4971.97
4971.97
5023.04
5023.04
5023.04
5023.04
5030.12
5030.12
5030.12
5030.12
5030.12
5030.12
5030.12
5030.12
5030.12
5030.12
5030.12
5030.12
5030.12
5030.12
5030.12
5030.12
5030.12
5030.12
5030.12
5090.22
5175.91
5140.38
5140.38
5177.75
4985.7
4985.7
5154.93
5154.93
5168.69
5168.69
5183.85
5228.81
5165.5
5231.53
5184.47
5184.47
5176.9
5184.47
5184.47
5177.7
5177.7
5221.81
5180.32
5221.81
5221.81
5221.81
5217.01
5217.01
5259.81
5224.8
5224.8
5224.8
5224.8
5224.8
5224.8
5231.24
5115.82
5115.82
5115.82
5189.12
5187.07
5186.19
5187.07
5187.07
5187.07
5187.07
5167.21
5187.07
5187.07
5142.84
5214.62
5214.62
5214.62
5241.44
5234.52
5234.52
5234.52
5241.37
5241.44
5219.29
5106.35
5106.35
5106.35
5106.35
5106.35
5106.35
5106.35
5106.35
5119.04
5119.04
5119.04
5119.04
5119.04
5119.04
5119.04
5119.04
5046.75
5046.75
5046.75
5046.75
5046.75
5043.84
5034.49
5047.96
5047.96
5040.74
5023.28
5023.28
5023.28
4958.86
4958.86
4958.86
5023.28
5023.28
5023.28
5023.28
5023.28
5023.28
5023.28
5023.28
5023.28
5023.28
5023.28
5023.28
5023.28
5023.28
5023.28
5023.28
5023.28
5023.28
5023.28
5023.28
5023.28
5023.28
5023.28
5023.28
5023.28
5021.61
5023.28
5023.28
5023.28
5043.35
5043.35
5073.18
5051.32
5042.49
5042.49
5051.32
5003.96
5051.32
4972.83
4972.83
5073.18
5073.18
5073.18
5073.18
5073.18
5073.18
5073.18
5073.18
5073.18
5073.18
4983.31
4983.31
4983.31
4983.31
4983.31
4983.31
4983.31
5111.33
5111.33
5111.33
5111.33
5111.33
5111.33
5111.33
5111.33
5111.33
5111.33
5111.33
5111.33
5111.33
5111.33
5108.72
5111.33
5111.33
5111.33
5111.33
5111.33
5054.96
5054.96
5054.96
5054.96
5058.7
5132.54
5132.54
5102.43
5148.49
5148.49
5127.45
5127.45
5120.02
5120.02
5124.41
5124.41
5124.41
5124.41
5124.41
5124.41
5124.41
5124.41
5124.41
5040.14
5040.14
5040.14
5040.14
5040.14
5040.14
5040.14
5040.14
5040.14
5040.14
5040.14
5040.14
5040.14
5040.14
5040.14
5040.14
5040.14
5040.14
5040.14
5040.14
5040.14
5040.14
5040.14
5040.14
5040.14
5040.14
5025.37
5025.37
5025.37
5040.14
5040.14
5040.14
5040.14
5040.14
5027.2
5027.2
5040.14
5040.14
5040.14
4930.25
5060.75
5070.02
5070.02
5070.02
5070.02
5070.02
5070.02
5070.02
5070.02
5073.79
5073.79
4943.7
4943.7
4943.7
4943.7
4943.7
4943.7
4943.7
5020.86
5020.86
5050.17
5067.43
5067.43
4954.4
4938.06
4938.06
4938.06
4938.06
4938.06
4938.06
4938.06
4938.06
4938.06
4938.06
4938.06
4938.06
4938.06
4938.06
4938.06
4938.06
4938.06
4938.06
4936.57
4938.06
4938.06
4938.06
4938.06
4938.06
4938.06
4938.06
4938.06
4938.06
4938.06
4938.06
4938.06
4932.33
4938.06
4938.06
4938.06
4938.06
4938.06
4924.88
4938.06
4938.06
4924.24
4926.11
4938.06
4938.06
4918.97
4918.97
4938.06
4938.06
4849.03
4926.11
4938.06
4938.06
4938.06
4938.06
4938.06
4938.06
4938.06
4966.1
4931.76
4989.92
4989.92
4989.92
4989.92
4989.92
5050.01
5050.01
5029.4
5019.61
5019.61
5015.91
5015.91
5015.91
5015.91
5015.63
5015.63
5015.63
4918.73
4918.73
4918.73
4918.73
4918.73
4918.73
4918.73
4918.73
4918.73
4863.62
4918.73
4918.73
4890.52
4918.73
4918.73
4918.73
4918.73
4918.73
4918.73
4918.73
4918.73
4918.73
4918.73
4918.73
4918.73
4856.41
4918.73
4918.73
4907.14
4907.14
4767.14
4767.14
4767.14
4966.4
4966.4
4966.4
4838.09
4838.09
4838.09
4917.02
4917.02
4917.02
4917.02
4917.02
4917.02
4917.02
4917.02
4917.02
4917.02
4917.02
4917.02
4917.02
5026.6
5041.76
4994.45
4994.45
4994.45
4994.45
4994.45
4994.45
4994.45
4994.45
4994.45
4994.45
4994.45
4994.45
5045.8
5045.8
5045.8
5045.8
5045.8
5045.8
5045.8
4963.83
4963.83
4963.83
4963.83
4961.68
4936.73
4936.73
4936.73
4936.73
4936.73
4936.73
4936.73
4936.73
4936.73
4936.73
4936.73
4936.73
4985.98
4985.98
4985.98
4985.98
4937.15
4999.13
4999.13
4999.13
5044.61
5044.61
5044.61
4957.24
4957.24
4957.24
5030.6
5044.61
5044.61
5044.61
4908.84
4931.85
4931.85
4931.85
4931.85
4931.85
4931.85
4931.85
4931.85
4931.85
4931.85
4931.85
4931.85
4931.85
4931.85
4931.85
4931.85
4931.85
4931.85
4931.85
4931.85
4931.85
4931.85
4931.85
4931.85
4931.85
4931.85
4931.85
4931.85
4931.85
4931.85
4931.85
4919.58
4919.58
4931.85
4931.85
4931.85
4931.85
4931.85
4931.85
4931.85
4931.85
4931.85
4931.85
4931.85
4931.85
4931.85
4920.73
4931.85
4931.85
4931.85
4931.85
4931.85
4931.85
4931.85
4931.85
4840.79
4795.35
4795.35
4795.35
4795.35
4795.35
4795.35
4795.35
4795.35
4795.35
4795.35
4795.35
4766.76
4795.35
4795.35
4795.35
4795.35
4795.35
4795.35
4795.35
4795.35
4795.35
4795.35
4795.35
4795.35
4795.35
4795.35
4795.35
4795.35
4795.35
4795.35
4795.35
4795.35
4795.35
4795.35
4764.54
4764.54
4764.54
4764.54
4764.54
4764.54
4764.54
4795.35
4795.35
4795.35
4795.35
4795.35
4795.35
4795.35
4795.35
4795.35
4795.35
4795.35
4795.35
4795.35
4795.35
4687.84
4687.84
4795.35
4795.35
4795.35
4795.35
4795.35
4795.35
4795.35
4795.35
4795.35
4795.35
4721.14
4721.14
4721.14
4721.14
4721.14
4721.14
4721.14
4795.35
4795.35
4795.35
4795.35
4776.48
4776.48
4776.48
4776.35
4776.35
4776.35
4776.35
4776.48
4776.48
4776.48
4776.48
4733.19
4733.19
4740.24
4740.24
4740.24
4740.24
4804.98
4795.76
4810.04
4818.74
4813.75
4800.72
4820.4
4809.57
4809.57
4771.96
4809.57
4809.57
4809.57
4809.57
4801.15
4766.76
4795.02
4795.02
4795.02
4795.02
4795.02
4795.02
4774.59
4795.02
4744.69
4682.87
4682.87
4800.11
4800.11
4800.11
4765.91
4832.1
4799.24
4799.24
4799.24
4829.87
4829.87
4829.87
4829.87
4829.87
4829.87
4776.02
4832.1
4831.28
4812.22
4815.73
4812.43
4812.43
4802.44
4792.35
4786.05
4786.05
4786.05
4786.05
4781.67
4781.67
4786.05
4786.05
4786.05
4786.05
4786.05
4786.05
4786.05
4811.27
4797.24
4797.24
4797.24
4797.24
4832.1
4832.1
4832.1
4832.1
4832.1
4774.21
4832.1
4832.1
4850.19
4850.19
4850.19
4850.19
4850.19
4850.19
4850.19
4850.19
4789.37
4850.19
4888.5
4843.55
4888.5
4888.5
4888.5
4842.16
4888.5
4888.5
4902.78
4906.82
4906.82
4906.82
4921.11
4921.11
4830.73
4818.98
4830.73
4830.73
4883.17
4883.17
4887.69
4887.69
4887.69
4865.29
4886.81
4886.81
4886.81
4886.81
4901.75
4901.75
4901.75
4926.13
4926.13
4926.13
4924.09
4912.25
4912.25
4912.25
4912.25
4912.25
4912.25
4926.13
4926.13
4852.99
4905.96
4926.13
4926.13
4926.13
4926.13
4950.5
4939.68
4946.58
4946.58
4914.68
4914.68
4914.68
4914.68
4914.68
4901.45
4945.88
4911.27
4940.17
4930.12
4930.12
4925.2
4924.21
4864.58
4864.58
4864.58
4840.14
4864.58
4864.58
4864.58
4864.58
4864.58
4864.58
4864.58
4864.58
4864.58
4864.58
4864.58
4864.58
4864.97
4864.97
4864.97
4864.97
4864.97
4830.93
4830.93
4830.93
4830.93
4830.93
4726.8
4726.8
4726.8
4726.8
4711.88
4711.88
4727.69
4779.77
4767.9
4767.9
4767.9
4767.9
4767.9
4767.9
4767.9
4767.9
4669.83
4767.9
4830.93
4830.93
4830.93
4830.93
4786.35
4830.93
4776.49
4776.49
4776.49
4829.62
4829.62
4830.93
4830.93
4830.93
4830.93
4754.65
4754.65
4754.65
4754.65
4741.69
4741.69
4741.69
4741.69
4741.69
4741.69
4741.69
4741.69
4741.69
4741.69
4741.69
4741.69
4741.69
4724.18
4724.18
4695.49
4695.49
4695.49
4741.69
4741.69
4691.92
4691.92
4691.92
4691.92
4741.69
4741.69
4741.69
4741.69
4741.69
4741.69
4741.69
4741.69
4741.69
4741.69
4740.51
4741.69
4741.69
4741.69
4741.69
4741.69
4741.69
4741.16
4724.11
4724.11
4724.11
4743.5
4747.69
4732.86
4747.69
4747.69
4747.69
4789.7
4789.7
4789.7
4721.79
4789.7
4771.12
4764.17
4764.17
4764.17
4764.17
4764.17
4764.17
4764.17
4789.7
4790.08
4790.08
4790.08
4790.08
4790.08
4775.41
4750.86
4750.86
4795.24
4713.54
4795.24
4795.24
4795.24
4795.24
4779.07
4779.07
4792.82
4792.82
4792.82
4795.24
4745.71
4745.71
4753.33
4716.16
4748.29
4748.29
4748.29
4741.42
4741.42
4748.29
4748.29
4745.86
4745.86
4748.29
4748.29
4748.29
4795.24
4795.24
4763.21
4696.36
4696.36
4696.36
4696.36
4696.36
4696.36
4695.61
4696.36
4696.36
4696.36
4696.36
4696.36
4696.36
4696.36
4668.74
4648.91
4648.91
4648.91
4648.91
4648.91
4648.91
4696.36
4696.36
4696.36
4696.36
4696.36
4696.36
4696.36
4696.36
4696.36
4696.36
4622.44
4677.02
4696.36
4696.36
4696.36
4696.36
4722.99
4720.47
4699.99
4722.99
4740.3
4681
4681
4712.35
4696.84
4604.09
4604.09
4604.09
4727.81
4727.81
4729.57
4729.57
4711.6
4711.6
4711.6
4738.97
4738.97
4738.97
4738.97
4738.97
4660.41
4700.18
4700.18
4700.18
4692.62
4692.62
4692.62
4685.78
4685.78
4685.78
4685.78
4685.78
4685.78
4685.78
4685.78
4720.48
4708.31
4708.31
4708.31
4708.31
4708.31
4708.31
4708.31
4708.31
4708.31
4744.88
4744.88
4744.88
4744.88
4790.91
4790.91
4679.65
4794.44
4802.21
4802.21
4802.21
4729.99
4745.99
4745.99
4814.44
4814.44
4814.44
4814.44
4766.72
4757.92
4766.72
4766.72
4766.72
4777.3
4810.58
4826.57
4826.57
4781.22
4781.22
4781.22
4826.57
4826.57
4700.28
4700.28
4700.28
4578.11
4578.11
4578.11
4648.37
4741.24
4741.24
4815.45
4788.37
4788.37
4788.37
4811.95
4795.43
4756.01
4795.43
4811.95
4769.15
4811.95
4811.95
4811.95
4811.95
4811.95
4786.63
4786.63
4786.63
4810.59
4811.95
4811.95
4811.95
4811.95
4811.95
4795.8
4795.8
4767.62
4767.62
4767.62
4767.62
4767.62
4767.62
4767.62
4767.62
4766.3
4762.23
4767.62
4767.62
4758.03
4731.23
4731.23
4731.23
4731.23
4731.23
4731.23
4731.23
4731.23
4731.23
4731.23
4731.23
4731.23
4731.23
4731.23
4731.23
4731.23
4731.23
4731.23
4731.23
4731.23
4731.23
4731.23
4731.23
4752.23
4752.23
4752.23
4752.23
4752.23
4755.75
4755.75
4755.75
4755.75
4755.75
4755.75
4755.75
4758.03
4717.97
4717.97
4717.97
4717.97
4717.97
4717.97
4717.97
4717.97
4717.97
4717.97
4717.97
4717.97
4717.97
4717.97
4717.97
4717.97
4717.97
4717.97
4717.97
4717.97
4717.97
4717.97
4717.97
4717.97
4717.97
4717.97
4717.97
4717.97
4717.97
4717.97
4717.97
4717.97
4717.97
4717.97
4717.97
4717.97
4717.97
4645.74
4645.74
4658.92
4668.78
4690.41
4690.41
4690.41
4690.41
4690.41
4690.41
4622.46
4622.46
4622.46
4622.46
4622.46
4622.46
4622.46
4622.46
4685.48
4690.41
4690.41
4690.41
4660.42
4664.48
4687.98
4687.98
4684.28
4687.98
4647.28
4572.04
4572.04
4572.04
4572.04
4572.04
4572.04
4675.26
4675.26
4675.26
4675.26
4717.97
4717.97
4717.97
4717.97
4717.97
4717.97
4717.97
4717.97
4717.97
4717.97
4717.97
4715.3
4715.3
4715.3
4715.86
4717.97
4717.97
4717.97
4717.97
4717.97
4675.81
4675.81
4675.81
4639.67
4639.67
4649.11
4649.11
4649.11
4717.97
4717.97
4717.97
4676.31
4676.31
4675.93
4708.27
4751.89
4751.89
4751.89
4735.28
4735.28
4751.89
4751.89
4676.01
4676.01
4676.01
4676.01
4676.01
4676.01
4676.01
4676.01
4676.01
4676.01
4676.01
4676.01
4676.01
4676.01
4676.01
4676.01
4676.01
4676.01
4676.01
4676.01
4676.01
4640.27
4640.27
4640.27
4676.01
4676.01
4747.34
4777.91
4777.91
4777.91
4776.86
4776.86
4776.86
4776.86
4776.86
4776.86
4776.86
4761.58
4761.58
4761.58
4683.61
4683.61
4683.61
4683.61
4683.61
4683.61
4683.61
4683.61
4683.61
4683.61
4683.61
4731.25
4782.91
4782.91
4774.47
4747.42
4747.42
4764.84
4764.84
4700.61
4773.56
4773.56
4751.28
4751.28
4751.28
4726.83
4726.83
4751.28
4751.28
4751.28
4751.28
4751.28
4751.28
4695.08
4695.08
4695.08
4683.12
4666.31
4659.94
4659.94
4651.8
4651.8
4651.8
4651.8
4651.8
4621.98
4651.8
4651.8
4651.8
4608.54
4651.8
4651.8
4651.8
4651.8
4651.8
4651.8
4651.8
4627.37
4651.8
4651.8
4651.8
4651.8
4635.05
4651.8
4651.8
4596.24
4633.13
4633.13
4651.8
4651.8
4635.62
4651.8
4651.8
4634.21
4634.21
4651.8
4651.8
4651.8
4651.8
4651.8
4651.8
4651.8
4651.8
4651.8
4651.8
4651.8
4651.8
4651.8
4651.8
4651.8
4651.8
4651.8
4651.8
4651.8
4651.8
4651.8
4651.8
4651.8
4651.8
4651.8
4622.68
4626.32
4626.32
4650.49
4650.49
4635.04
4650.49
4651.8
4651.8
4548.48
4651.8
4651.8
4614
4614
4614
4613.38
4613.38
4613.38
4613.38
4613.38
4614
4614
4614
4614
4614
4614
4417.79
4417.79
4417.79
4417.79
4417.79
4417.79
4417.79
4417.79
4417.79
4439.98
4439.98
4439.98
4400.47
4400.47
4439.98
4439.98
4439.98
4439.98
4439.98
4439.98
4439.98
4439.98
4439.98
4374.56
4439.98
4439.98
4439.19
4439.19
4439.19
4439.98
4439.98
4439.98
4439.98
4439.98
4423.21
4439.98
4439.98
4439.98
4439.98
4439.98
4439.98
4439.98
4439.98
4439.98
4439.98
4439.98
4439.98
4436.15
4436.15
4436.15
4436.15
4436.15
4436.15
4436.15
4436.15
4436.15
4436.15
4436.15
4436.15
4431.81
4431.81
4431.81
4431.81
4431.81
4402.24
4402.24
4402.24
4402.24
4402.24
4402.24
4431.81
4431.81
4431.81
4431.81
4431.81
4431.81
4431.81
4431.81
4431.81
4431.81
4431.81
4423.55
4431.81
4431.81
4431.81
4431.81
4431.81
4424.65
4424.65
4424.65
4424.65
4431.81
4439.98
4439.98
4439.98
4424.83
4424.83
4424.83
4428.55
4439.98
4439.98
4439.98
4439.98
4439.98
4439.98
4439.98
4439.98
4439.98
4434.66
4434.66
4434.66
4434.66
4434.66
4417.76
4417.76
4417.76
4417.76
4417.76
4417.76
4417.76
4434.66
4434.66
4434.66
4434.66
4434.66
4434.66
4434.66
4434.66
4434.66
4434.66
4434.66
4434.66
4434.66
4434.66
4434.66
4434.66
4434.66
4451.18
4459.45
4448.07
4448.07
4448.07
4459.45
4459.45
4459.45
4459.45
4459.45
4459.45
4459.45
4459.45
4425.12
4459.45
4459.45
4455.64
4459.45
4459.45
4459.45
4459.45
4465.62
4465.62
4465.62
4465.62
4430.42
4430.42
4430.42
4430.42
4430.42
4430.42
4430.42
4430.42
4430.42
4430.42
4430.42
4465.62
4465.62
4465.62
4465.62
4377.74
4377.74
4252.93
4252.93
4252.93
4236.49
4377.74
4377.74
4428.38
4428.38
4335.68
4419.59
4428.38
4379.03
4428.38
4428.38
4428.38
4428.38
4428.38
4428.38
4428.38
4428.38
4428.38
4405.51
4405.51
4405.51
4405.51
4382.86
4382.86
4382.86
4382.86
4382.86
4382.86
4382.86
4382.86
4382.86
4382.86
4382.86
4382.86
4380.62
4428.38
4452.24
4452.24
4452.24
4452.24
4421.65
4421.65
4406.45
4421.65
4421.65
4421.65
4421.65
4421.65
4421.65
4401.84
4401.84
4345.45
4401.84
4402.32
4402.32
4402.32
4402.32
4402.32
4402.32
4401.64
4401.64
4401.64
4401.64
4453.11
4461.08
4399.5
4461.08
4461.08
4412.93
4412.93
4412.93
4412.93
4412.93
4412.93
4412.93
4412.93
4412.93
4461.08
4461.08
4518.25
4518.25
4500.2
4467.51
4467.51
4467.51
4467.51
4467.51
4467.09
4467.09
4467.09
4467.51
4467.51
4467.51
4467.51
4467.51
4467.51
4467.51
4467.51
4467.51
4498.03
4533.43
4533.43
4533.43
4533.43
4548.34
4548.34
4548.34
4548.34
4548.34
4548.34
4596.48
4579.98
4569.53
4569.53
4569.53
4569.53
4569.53
4569.53
4569.53
4487.58
4487.58
4507.76
4507.76
4507.76
4507.76
4507.76
4507.76
4507.76
4507.76
4411.11
4411.11
4411.11
4411.11
4537.65
4537.65
4516.97
4516.97
4537.65
4526.97
4526.97
4526.97
4526.97
4601.22
4538.78
4601.22
4550.78
4550.78
4601.22
4601.22
4621.93
4621.93
4621.93
4621.93
4621.93
4621.93
4614.34
4614.34
4569.86
4569.86
4569.86
4569.86
4569.86
4605.52
4605.52
4605.52
4605.52
4572.53
4572.53
4572.53
4605.52
4609.15
4609.15
4610.69
4603.91
4603.91
4603.91
4603.91
4603.91
4603.91
4603.91
4603.91
4614.34
4614.34
4672.34
4672.34
4668.14
4656.15
4630.8
4652
4652
4652
4652
4652
4630.24
4668.9
4670.01
4670.01
4670.01
4670.01
